NAME : XML100_3375_25
DIMENSION : 101
NB_CLUSTERS : 3
CLUSTERING_ALG : DBSCAN
CLUSTERING_PARAMS : eps(135), minSamples(3)
CLUSTERS
1 0
2 1 2 4 5 6 7 8 12 13 19 20 22 23 24 25 27 28 30 31 33 35 37 38 39 41 45 46 49 53 54 55 56 57 60 61 62 68 69 72 73 74 76 77 86 87 88 90 91 93 94 95 96 97 98
3 3 9 10 11 14 15 16 17 18 21 26 29 32 34 36 40 42 43 44 47 48 50 51 52 58 59 63 64 65 66 67 70 71 75 78 79 80 81 82 83 84 85 89 92 99 100
EOF